NAME PortOpt_n10_m4_inst_2
ROWS
 N  OBJ
 E  budget  
 G  return  
 L  uncertain_risk
 L  fixed_risk
COLUMNS
    asset[0]  budget    1
    asset[0]  return    1.0274109717774309e+00
    asset[1]  budget    1
    asset[1]  return    2.0553800255349746e+00
    asset[2]  budget    1
    asset[2]  return    4.2986687416706326e+00
    asset[3]  budget    1
    asset[3]  return    2.7481832604896370e+00
    asset[4]  budget    1
    asset[4]  return    1.2285703578674372e+00
    asset[5]  budget    1
    asset[5]  return    2.9787060028330048e+00
    asset[6]  budget    1
    asset[6]  return    3.5101919528480048e+00
    asset[7]  budget    1
    asset[7]  return    2.8518553796765751e+00
    asset[8]  budget    1
    asset[8]  return    2.6942842466905890e+00
    asset[9]  budget    1
    asset[9]  return    3.2995125163845218e+00
    return_var  OBJ       -1
    return_var  return    -1
    uncertain_risk_var  OBJ       1
    uncertain_risk_var  uncertain_risk  -1
    fixed_risk_var  OBJ       1
    fixed_risk_var  fixed_risk  -1
RHS
    RHS1      budget    1
BOUNDS
QCMATRIX   uncertain_risk
    asset[0]  asset[0]  5.5689300956680302e-02
    asset[0]  asset[1]  6.8188426306845989e-02
    asset[1]  asset[0]  6.8188426306845989e-02
    asset[0]  asset[2]  -2.9536121986793604e-02
    asset[2]  asset[0]  -2.9536121986793604e-02
    asset[0]  asset[3]  -5.5875098368417652e-03
    asset[3]  asset[0]  -5.5875098368417652e-03
    asset[0]  asset[4]  2.6409429270009561e-02
    asset[4]  asset[0]  2.6409429270009561e-02
    asset[0]  asset[5]  3.3432206129801391e-02
    asset[5]  asset[0]  3.3432206129801391e-02
    asset[0]  asset[6]  -4.3037587467882332e-02
    asset[6]  asset[0]  -4.3037587467882332e-02
    asset[0]  asset[7]  4.5548346745497709e-02
    asset[7]  asset[0]  4.5548346745497709e-02
    asset[0]  asset[8]  2.4575908214515940e-02
    asset[8]  asset[0]  2.4575908214515940e-02
    asset[0]  asset[9]  4.4934253527614682e-02
    asset[9]  asset[0]  4.4934253527614682e-02
    asset[1]  asset[1]  1.0520255600445209e-01
    asset[1]  asset[2]  -2.7461826751799537e-02
    asset[2]  asset[1]  -2.7461826751799537e-02
    asset[1]  asset[3]  1.3290974113785804e-02
    asset[3]  asset[1]  1.3290974113785804e-02
    asset[1]  asset[4]  3.1501558521343578e-02
    asset[4]  asset[1]  3.1501558521343578e-02
    asset[1]  asset[5]  2.4182159085879843e-02
    asset[5]  asset[1]  2.4182159085879843e-02
    asset[1]  asset[6]  -7.1478654789646850e-02
    asset[6]  asset[1]  -7.1478654789646850e-02
    asset[1]  asset[7]  8.2167443203554125e-02
    asset[7]  asset[1]  8.2167443203554125e-02
    asset[1]  asset[8]  3.4628821214839872e-02
    asset[8]  asset[1]  3.4628821214839872e-02
    asset[1]  asset[9]  5.8390198897733739e-02
    asset[9]  asset[1]  5.8390198897733739e-02
    asset[2]  asset[2]  6.4767459452906406e-02
    asset[2]  asset[3]  2.6056350052978860e-02
    asset[3]  asset[2]  2.6056350052978860e-02
    asset[2]  asset[4]  -3.4064254723110421e-02
    asset[4]  asset[2]  -3.4064254723110421e-02
    asset[2]  asset[5]  7.3701343463319809e-03
    asset[5]  asset[2]  7.3701343463319809e-03
    asset[2]  asset[6]  3.4771200438366970e-02
    asset[6]  asset[2]  3.4771200438366970e-02
    asset[2]  asset[7]  -3.8626190138837557e-02
    asset[7]  asset[2]  -3.8626190138837557e-02
    asset[2]  asset[8]  -5.8503040423515867e-02
    asset[8]  asset[2]  -5.8503040423515867e-02
    asset[2]  asset[9]  -6.3186741590368786e-02
    asset[9]  asset[2]  -6.3186741590368786e-02
    asset[3]  asset[3]  2.4780746526733417e-02
    asset[3]  asset[4]  -8.9833917706177158e-03
    asset[4]  asset[3]  -8.9833917706177158e-03
    asset[3]  asset[5]  -7.1848344142503313e-03
    asset[5]  asset[3]  -7.1848344142503313e-03
    asset[3]  asset[6]  -6.8852255761487711e-03
    asset[6]  asset[3]  -6.8852255761487711e-03
    asset[3]  asset[7]  1.0621132457253830e-02
    asset[7]  asset[3]  1.0621132457253830e-02
    asset[3]  asset[8]  -1.3951436469106036e-02
    asset[8]  asset[3]  -1.3951436469106036e-02
    asset[3]  asset[9]  -1.6038760620406153e-02
    asset[9]  asset[3]  -1.6038760620406153e-02
    asset[4]  asset[4]  2.2537345301109263e-02
    asset[4]  asset[5]  4.6468793105710685e-03
    asset[5]  asset[4]  4.6468793105710685e-03
    asset[4]  asset[6]  -2.8417805975120509e-02
    asset[6]  asset[4]  -2.8417805975120509e-02
    asset[4]  asset[7]  2.9805868403400666e-02
    asset[7]  asset[4]  2.9805868403400666e-02
    asset[4]  asset[8]  3.1740373701382149e-02
    asset[8]  asset[4]  3.1740373701382149e-02
    asset[4]  asset[9]  3.6838884969912319e-02
    asset[9]  asset[4]  3.6838884969912319e-02
    asset[5]  asset[5]  5.7693843275511240e-02
    asset[5]  asset[6]  1.8354924321021459e-03
    asset[6]  asset[5]  1.8354924321021459e-03
    asset[5]  asset[7]  -1.2612493773476285e-02
    asset[7]  asset[5]  -1.2612493773476285e-02
    asset[5]  asset[8]  -2.1978090978448120e-02
    asset[8]  asset[5]  -2.1978090978448120e-02
    asset[5]  asset[9]  -6.5666262537648640e-03
    asset[9]  asset[5]  -6.5666262537648640e-03
    asset[6]  asset[6]  5.7889606433573437e-02
    asset[6]  asset[7]  -6.8388317840763102e-02
    asset[7]  asset[6]  -6.8388317840763102e-02
    asset[6]  asset[8]  -4.3067754325334662e-02
    asset[8]  asset[6]  -4.3067754325334662e-02
    asset[6]  asset[9]  -5.4607516803137010e-02
    asset[9]  asset[6]  -5.4607516803137010e-02
    asset[7]  asset[7]  8.4890828698782561e-02
    asset[7]  asset[8]  5.1793906836505949e-02
    asset[8]  asset[7]  5.1793906836505949e-02
    asset[7]  asset[9]  6.5357418741929740e-02
    asset[9]  asset[7]  6.5357418741929740e-02
    asset[8]  asset[8]  6.0841003064358488e-02
    asset[8]  asset[9]  6.2983362667383053e-02
    asset[9]  asset[8]  6.2983362667383053e-02
    asset[9]  asset[9]  7.5700032513400212e-02
QCMATRIX   fixed_risk
    asset[0]  asset[0]  5.8083156829113192e-03
    asset[1]  asset[1]  9.6537034368015667e-03
    asset[2]  asset[2]  6.0416582217669643e-03
    asset[3]  asset[3]  2.5800062619785406e-03
    asset[4]  asset[4]  2.1873665962808988e-03
    asset[5]  asset[5]  5.7249814176736991e-03
    asset[6]  asset[6]  5.8776965900094900e-03
    asset[7]  asset[7]  8.0096596808939616e-03
    asset[8]  asset[8]  6.1092643505504772e-03
    asset[9]  asset[9]  7.3741204936558493e-03
ENDATA
